c Random 6-CNF over 30 variables and 150 clauses
c Generated with `cnfgen`
c (C) 2012-2016 Massimo Lauria <lauria.massimo@gmail.com>
c https://massimolauria.github.io/cnfgen
c
c COMMAND LINE: cnfgen --output tmp-6-30-150.dimacs --output-format dimacs randkcnf 6 30 150
c
c sdimacs generated by gen-sdimacs
c
p cnf 30 150
r 0.5 1 2 3 4 5 6 7 8 9 10 11 12 13 14 15 0
e  16 17 18 19 20 21 22 23 24 25 26 27 28 29 30 0
2 -6 17 23 27 30 0
-8 -12 22 -26 29 30 0
1 12 19 21 -22 27 0
-6 11 12 -13 23 28 0
2 6 15 18 19 25 0
2 -9 18 -23 25 30 0
-1 3 5 -12 -23 30 0
4 8 9 10 14 -19 0
3 -8 15 19 -25 27 0
6 -9 -13 21 -27 -29 0
-2 -9 -13 -17 26 -29 0
-8 11 -15 21 -22 25 0
4 19 -20 21 -29 30 0
2 -4 5 7 -13 -21 0
9 -10 12 -16 -24 28 0
-7 -17 19 -20 -24 30 0
-6 -7 8 -22 -26 -27 0
-3 -5 -9 -24 26 -28 0
3 4 -14 -20 23 29 0
-3 7 -13 -14 17 23 0
-8 -18 -21 23 25 -27 0
2 4 5 -11 -12 27 0
3 -13 -17 20 22 25 0
-3 -6 -9 -10 -11 29 0
-8 -11 12 13 -24 28 0
-7 12 -13 22 -24 29 0
-8 -11 -12 14 23 -30 0
-2 -9 -15 -17 -18 21 0
-9 -10 -11 13 -17 27 0
9 12 -14 17 -22 -26 0
-2 5 -7 10 -19 28 0
8 10 -15 18 19 -20 0
8 17 -19 -23 -28 29 0
-8 10 -12 13 26 29 0
-20 -21 24 25 26 -29 0
1 7 8 14 -16 -23 0
10 -12 -13 15 -27 -30 0
1 -5 12 19 22 -30 0
1 11 19 20 21 28 0
-12 -19 -23 -24 -25 28 0
-15 20 -23 -24 -27 -28 0
-3 -5 12 15 25 -30 0
2 6 12 17 -21 30 0
-4 -5 -8 13 -19 23 0
-2 -6 17 20 27 30 0
5 -6 -12 14 19 -28 0
1 -5 9 -13 -21 22 0
3 -8 9 -14 -16 -25 0
2 -8 14 17 -19 20 0
12 -20 21 22 23 26 0
4 -7 -15 -16 18 -20 0
10 -18 -19 -22 27 -29 0
7 -8 11 -14 -18 -29 0
5 -7 -10 -17 19 -27 0
8 10 -22 -23 -26 28 0
-10 14 -19 -24 29 30 0
3 4 -9 -10 -15 -23 0
11 -12 14 -15 20 25 0
4 -5 -9 11 23 -29 0
2 -6 15 21 23 -27 0
2 3 11 -19 -25 28 0
-1 2 -4 -11 18 23 0
-5 -6 -14 16 23 -24 0
4 6 -18 23 25 29 0
1 6 18 -21 22 30 0
-3 -15 -20 -21 -22 -23 0
-2 10 12 -16 18 -29 0
-6 15 19 -23 26 -29 0
-9 -15 -16 17 -22 28 0
5 7 14 24 26 -29 0
-1 2 8 22 27 28 0
-7 12 14 18 20 25 0
-2 5 19 21 24 30 0
4 -7 8 9 -23 24 0
2 -12 -19 20 -23 -25 0
8 11 15 -18 -24 -29 0
3 4 -13 -16 28 30 0
-1 10 16 -17 -19 -27 0
-9 11 13 16 19 -24 0
-8 10 -12 15 -20 -26 0
-2 -3 4 11 26 27 0
1 7 8 10 11 -27 0
6 -11 12 15 17 -23 0
-2 15 19 -20 24 30 0
-1 -3 -9 12 28 29 0
-8 9 -13 -15 19 -20 0
-2 -13 -21 22 25 26 0
-1 -2 -11 16 -19 20 0
-6 13 17 19 -27 -30 0
1 -2 -4 -14 28 -29 0
1 -9 10 12 18 -30 0
-2 -4 9 13 18 -27 0
4 12 13 20 -26 30 0
2 -5 17 20 -23 -27 0
-5 -12 -13 14 -23 29 0
-4 6 11 -24 25 30 0
-7 -8 -15 25 27 30 0
11 14 -18 22 25 28 0
2 14 -16 20 -21 29 0
-4 -12 13 -14 15 16 0
-14 -15 -16 -18 -23 25 0
-4 -10 12 -22 24 -30 0
-2 9 12 -18 21 -28 0
1 -3 -12 -21 -27 -30 0
-8 18 22 -24 27 -29 0
10 11 -19 20 25 -28 0
4 5 8 -19 22 28 0
-2 -3 -18 -20 -21 -26 0
-4 -9 14 -15 -18 -24 0
-1 -10 14 -21 -24 -29 0
-6 -11 -12 13 -19 21 0
-12 17 18 22 23 28 0
7 -9 14 -18 24 -27 0
4 -15 -17 -20 25 30 0
-6 -9 -14 16 -18 -19 0
5 16 21 -24 27 28 0
3 10 -12 14 -15 29 0
-4 6 10 15 -18 -24 0
-8 9 14 16 -17 24 0
-1 -10 -12 15 21 23 0
-1 5 6 21 24 25 0
-4 -11 20 23 27 -30 0
8 9 14 18 23 -27 0
-1 2 -7 9 -26 27 0
10 12 -14 18 -28 30 0
-1 6 13 -17 -18 27 0
-8 15 18 23 -27 28 0
2 -4 7 -9 -19 -26 0
-2 -4 13 -14 19 -24 0
1 -3 7 17 -26 28 0
1 2 -4 -5 -9 -19 0
-5 -7 -8 -9 -23 -25 0
9 -13 -24 25 26 -29 0
4 -13 -16 21 22 27 0
2 -8 -13 14 -21 25 0
-1 5 -20 27 28 -29 0
5 11 -16 20 -21 23 0
3 -9 11 -16 18 21 0
-2 5 -9 -15 -16 -27 0
4 16 17 20 -22 -30 0
3 -16 20 -22 23 -26 0
3 10 -15 17 23 -26 0
4 6 -9 -13 16 -21 0
-2 3 4 7 12 18 0
6 15 -19 -24 -26 28 0
4 7 -8 -20 27 -28 0
-3 14 -20 -21 -25 -27 0
-3 -5 -17 18 -29 -30 0
2 -5 6 -16 -17 30 0
6 7 11 -19 -20 23 0
